(set-logic ALL)
(declare-const BAV1 Bool)
(declare-const GEN5 (_ BitVec 52))
(declare-const GEN4 (_ BitVec 11))
(declare-const GEN3 (_ BitVec 1))
(declare-const GEN2 Int)
(declare-const GEN1 Int)
(set-info :source |Handcrafted by Christoph M. Wintersteiger (cwinter@microsoft.com).|)
(define-sort FPN () (_ FloatingPoint 11 53))
(declare-const x FPN)
(assert (= x (fp.rem (_ +zero 11 53) (fp GEN3 GEN4 GEN5))))
(assert (= BAV1 (= x (fp.rem (_ +zero 11 53) (fp GEN3 GEN4 GEN5)))))
(check-sat)
(get-model)
(check-sat-using smt)
(check-sat-using (then fpa2bv smt))
(get-model)
(exit)